nbrTasks = 23;
nbrMachines = 2;
nbrTools = 2;
names = ["Take top-button-ring from top-tray","Fixate top-button-ring","Mount top-button-ring on bottom-switch","Mount button on top","Take ring","Change to bottom-grabber tool","Put bottom-switch on table","Take button","Angle top-button","Take bottom-switch","Lift top-button, support","Lift top-button, hold top-button","Take switch","Turn top-button","Mount switch in bottom","Take top","Take bottom","Put top in fixture","Put bottom in fixture","Put top-button-ring in top-tray","Mount ring on top-button, hold","Take top-button from fixture","Mount ring on top-button, mount"];

duration = [5,15,15,25,10,60,5,5,5,0,5,5,5,20,15,5,5,10,10,5,260,5,260];

% Trays
% 1: Ring tray
% 2: Button tray
% 3: Switch tray
% 4: Bottom tray
% 5: Top tray
tray = [5,0,0,0,1,0,0,2,0,0,0,0,3,0,0,5,4,0,0,5,0,0,0];

% Fixtures
% 1: Front fixture
fixture = [0,1,0,1,0,0,0,0,1,1,0,0,0,0,1,0,0,1,1,0,0,1,0];

% Components
% 1: Bottom
% 2: Switch
% 3: Top
% 4: Button
% 5: Ring
% 6: Bottom-Switch
% 7: Top-Button
% 8: Top-Button-Ring
% 9: Complete
component = [|
8,8,8,3,5,0,6,4,7,6,7,7,2,7,1,3,1,3,1,8,7,7,5|
0,0,6,4,0,0,0,0,0,0,0,0,0,0,2,0,0,0,0,0,0,0,0|];
nbrComponents = 9;
maxComponentsUsed = 2;

component_created = [0,0,9,7,0,0,0,0,0,0,0,0,0,0,6,0,0,0,0,0,8,0,8];

% putting a component
putting = [0,0,0,0,0,0,1,0,0,0,0,0,0,0,0,0,0,1,1,1,0,0,0];

% mounting a component
mounting = [0,0,1,1,0,0,0,0,0,0,0,0,0,0,1,0,0,0,0,0,1,0,1];

% taking a component
taking = [1,0,0,0,1,0,0,1,0,1,0,0,1,0,0,1,1,0,0,0,0,1,0];

% moving a component
moving = [0,1,0,0,0,0,0,0,1,0,1,1,0,1,0,0,0,0,0,0,0,0,0];

concurrentTasks = [|
12,11|
21,23|];
maxConcurrentTasks = 2;
nbrConcurrentGroups = 2;

order = [|
22,9,12,14,21,2,20|];
maxOrderedLength = 7;
orderedGroups = 1;

resources = [1,1,1,1,1,1,1,1,1,1,1,1,1,1,1,1,1,1,1,1,1,1,1];

% Coords fromX,fromY,toX,toY
coords = [|
7,9,7,9|
4,9,4,9|
9,2,9,2|
10,2,10,2|
8,2,8,2|
14,9,14,9|
8,12,8,12|
10,2,10,2|
5,2,5,2|
8,2,8,2|
8,2,8,2|
8,2,7,9|
8,2,7,9|
12,5,12,5|
7,9,7,9|
8,2,8,2|
4,9,4,9|
11,9,11,9|
8,2,8,2|
8,2,8,2|
4,9,4,9|
7,9,7,9|
8,2,8,2|
7,9,7,9|];

% Tools
% 1: tool1
% 2: tool2
tools_needed = [1,1,1,1,1,0,2,1,1,2,0,1,2,1,2,1,2,1,2,1,1,1,1];

changes_tool = [|
6|
2|];
tool_changes = 1;

default_tool = [1,1];
